language ESSENCE' 1.0
letting lastdx=93
letting cage be [
[15,4,5,4,6,0,0, 0,0, 0,0],
[46,11,7,11,8,11,9,10,9,10,8],
[27,13,9,12,9,12,10,0,0, 0,0],
[30,9,9,9,8,9,7,8,7,0,0],
[36,13,6,13,7,14,7,15,7,0,0],
[32,5,7,4,7,4,8,0,0, 0,0],
[15,15,6,14,6,0,0, 0,0, 0,0],
[25,2,11,1,11,1,10,1,9,0,0],
[29,6,10,6,9,6,8,5,8,0,0],
[28,7,8,7,7,7,6,0,0, 0,0],
[4,10,12,0,0, 0,0, 0,0, 0,0],
[29,6,13,6,12,6,11,0,0, 0,0],
[33,7,9,8,9,8,8,0,0, 0,0],
[15,8,4,0,0, 0,0, 0,0, 0,0],
[45,12,8,13,8,14,8,15,8,0,0],
[44,11,11,11,10,10,10,9,10,8,10],
[23,13,15,13,16,14,16,0,0, 0,0],
[16,2,10,0,0, 0,0, 0,0, 0,0],
[25,4,16,5,16,6,16,7,16,7,15],
[8,8,13,0,0, 0,0, 0,0, 0,0],
[37,3,9,3,8,3,7,3,6,3,5],
[28,2,6,1,6,1,5,2,5,0,0],
[42,13,4,13,3,14,3,14,4,15,4],
[16,12,11,0,0, 0,0, 0,0, 0,0],
[44,2,7,1,7,1,8,2,8,2,9],
[11,11,2,11,1,10,1,0,0, 0,0],
[6,12,5,11,5,0,0, 0,0, 0,0],
[2,6,15,0,0, 0,0, 0,0, 0,0],
[16,12,4,11,4,11,3,0,0, 0,0],
[6,15,9,0,0, 0,0, 0,0, 0,0],
[6,9,6,0,0, 0,0, 0,0, 0,0],
[28,11,6,10,6,10,7,0,0, 0,0],
[31,5,11,5,10,4,10,3,10,3,11],
[7,2,3,0,0, 0,0, 0,0, 0,0],
[47,4,1,5,1,5,2,4,2,3,2],
[7,8,6,0,0, 0,0, 0,0, 0,0],
[3,15,13,0,0, 0,0, 0,0, 0,0],
[14,6,4,7,4,0,0, 0,0, 0,0],
[11,3,13,0,0, 0,0, 0,0, 0,0],
[7,12,15,0,0, 0,0, 0,0, 0,0],
[16,6,2,0,0, 0,0, 0,0, 0,0],
[21,10,4,10,3,0,0, 0,0, 0,0],
[1,15,2,0,0, 0,0, 0,0, 0,0],
[12,16,1,0,0, 0,0, 0,0, 0,0],
[13,4,11,0,0, 0,0, 0,0, 0,0],
[12,10,13,0,0, 0,0, 0,0, 0,0],
[28,16,6,16,5,15,5,0,0, 0,0],
[11,1,4,0,0, 0,0, 0,0, 0,0],
[28,8,12,8,11,7,11,7,10,0,0],
[12,14,5,13,5,0,0, 0,0, 0,0],
[13,15,14,0,0, 0,0, 0,0, 0,0],
[21,16,14,16,13,16,12,0,0, 0,0],
[54,16,11,16,10,15,10,14,10,14,9],
[28,8,5,7,5,6,5,0,0, 0,0],
[19,9,2,10,2,0,0, 0,0, 0,0],
[34,10,11,9,11,9,12,9,13,9,14],
[2,16,16,0,0, 0,0, 0,0, 0,0],
[9,4,4,5,4,0,0, 0,0, 0,0],
[10,4,14,0,0, 0,0, 0,0, 0,0],
[3,2,2,0,0, 0,0, 0,0, 0,0],
[18,5,9,4,9,0,0, 0,0, 0,0],
[46,5,6,5,5,6,6,6,7,0,0],
[42,5,3,6,3,7,3,8,3,0,0],
[14,1,1,0,0, 0,0, 0,0, 0,0],
[11,1,2,1,3,0,0, 0,0, 0,0],
[12,1,14,0,0, 0,0, 0,0, 0,0],
[17,1,15,2,15,3,15,0,0, 0,0],
[30,1,16,2,16,3,16,0,0, 0,0],
[22,2,1,3,1,0,0, 0,0, 0,0],
[12,2,4,0,0, 0,0, 0,0, 0,0],
[4,2,13,0,0, 0,0, 0,0, 0,0],
[16,2,14,3,14,0,0, 0,0, 0,0],
[24,3,3,3,4,4,3,0,0, 0,0],
[29,3,12,4,12,4,13,0,0, 0,0],
[20,4,15,5,15,0,0, 0,0, 0,0],
[6,6,1,0,0, 0,0, 0,0, 0,0],
[29,7,1,8,1,9,1,8,2,7,2],
[11,7,12,0,0, 0,0, 0,0, 0,0],
[20,7,13,7,14,0,0, 0,0, 0,0],
[37,8,16,9,16,10,16,0,0, 0,0],
[13,9,3,0,0, 0,0, 0,0, 0,0],
[19,10,14,11,14,12,14,0,0, 0,0],
[26,11,12,12,12,13,12,13,11,13,10],
[18,11,13,12,13,0,0, 0,0, 0,0],
[36,11,15,11,16,12,16,0,0, 0,0],
[7,12,6,12,7,0,0, 0,0, 0,0],
[40,13,2,14,2,14,1,15,1,0,0],
[6,13,13,0,0, 0,0, 0,0, 0,0],
[35,13,14,14,14,14,15,0,0, 0,0],
[16,14,11,15,11,0,0, 0,0, 0,0],
[8,15,3,0,0, 0,0, 0,0, 0,0],
[36,15,15,15,16,16,15,0,0, 0,0],
[22,16,2,16,3,16,4,0,0, 0,0],
[18,16,7,16,8,16,9,0,0, 0,0]
]
